# Solution for model Model5
# Objective value = 115
y[0,0,2] 0
y[0,0,3] 1
y[0,0,6] 0
y[0,1,1] 0
y[0,1,2] 1
y[0,1,4] 0
y[0,2,1] 0
y[0,2,2] 1
y[0,2,4] 0
y[1,0,0] 0
y[1,0,1] 1
y[1,0,4] 0
y[1,1,2] 0
y[1,1,4] 1
y[1,1,6] 0
y[1,2,1] 0
y[1,2,4] 1
y[1,2,5] 0
y[2,0,0] 0
y[2,0,2] 1
y[2,0,5] 0
y[2,1,2] 0
y[2,1,5] 1
y[2,1,6] 0
y[2,2,0] 1
y[2,2,3] 0
y[2,2,4] 0
y[3,0,2] 0
y[3,0,3] 1
y[3,0,6] 0
y[3,1,1] 1
y[3,1,4] 0
y[3,1,5] 0
y[3,2,3] 0
y[3,2,4] 1
y[3,2,5] 0
y[4,0,2] 0
y[4,0,4] 0
y[4,0,6] 1
y[4,1,0] 1
y[4,1,4] 0
y[4,1,6] 0
y[4,2,0] 0
y[4,2,3] 0
y[4,2,5] 1
y[5,0,0] 0
y[5,0,5] 0
y[5,0,6] 1
y[5,1,2] 0
y[5,1,3] 1
y[5,1,4] 0
y[5,2,1] 1
y[5,2,2] 0
y[5,2,5] 0
y[6,0,0] 1
y[6,0,1] 0
y[6,0,5] 0
y[6,1,1] 0
y[6,1,4] 0
y[6,1,5] 1
y[6,2,1] 0
y[6,2,4] 0
y[6,2,6] 1
x[0,0,0,0] 0
x[0,0,0,1] 0
x[0,0,0,2] 1
x[0,0,1,0] 0
x[0,0,1,1] 0
x[0,0,1,2] 0
x[0,0,2,0] 0
x[0,0,2,1] 1
x[0,0,2,2] 0
x[0,0,3,0] 0
x[0,0,3,1] 0
x[0,0,3,2] 0
x[0,0,4,0] 1
x[0,0,4,1] 1
x[0,0,4,2] 1
x[0,0,5,0] 1
x[0,0,5,1] 1
x[0,0,5,2] 0
x[0,0,6,0] 0
x[0,0,6,1] 0
x[0,0,6,2] 1
x[0,1,0,0] 1
x[0,1,0,1] 0
x[0,1,0,2] 1
x[0,1,1,0] 0
x[0,1,1,1] 1
x[0,1,1,2] 1
x[0,1,2,0] 0
x[0,1,2,1] 0
x[0,1,2,2] 0
x[0,1,3,0] 0
x[0,1,3,1] 1
x[0,1,3,2] 1
x[0,1,4,0] 0
x[0,1,4,1] 0
x[0,1,4,2] 0
x[0,1,5,0] 0
x[0,1,5,1] 1
x[0,1,5,2] 1
x[0,1,6,0] 0
x[0,1,6,1] 1
x[0,1,6,2] 0
x[0,2,0,0] 0
x[0,2,0,1] 0
x[0,2,0,2] 0
x[0,2,1,0] 1
x[0,2,1,1] 0
x[0,2,1,2] 0
x[0,2,2,0] 0
x[0,2,2,1] 0
x[0,2,2,2] 1
x[0,2,3,0] 0
x[0,2,3,1] 0
x[0,2,3,2] 0
x[0,2,4,0] 0
x[0,2,4,1] 0
x[0,2,4,2] 0
x[0,2,5,0] 0
x[0,2,5,1] 0
x[0,2,5,2] 1
x[0,2,6,0] 0
x[0,2,6,1] 1
x[0,2,6,2] 0
x[1,0,0,0] 0
x[1,0,0,1] 0
x[1,0,0,2] 0
x[1,0,1,0] 0
x[1,0,1,1] 1
x[1,0,1,2] 0
x[1,0,2,0] 0
x[1,0,2,1] 0
x[1,0,2,2] 0
x[1,0,3,0] 0
x[1,0,3,1] 0
x[1,0,3,2] 0
x[1,0,4,0] 1
x[1,0,4,1] 0
x[1,0,4,2] 1
x[1,0,5,0] 0
x[1,0,5,1] 1
x[1,0,5,2] 1
x[1,0,6,0] 0
x[1,0,6,1] 0
x[1,0,6,2] 1
x[1,1,0,0] 0
x[1,1,0,1] 0
x[1,1,0,2] 0
x[1,1,1,0] 0
x[1,1,1,1] 0
x[1,1,1,2] 1
x[1,1,2,0] 1
x[1,1,2,1] 1
x[1,1,2,2] 1
x[1,1,3,0] 1
x[1,1,3,1] 0
x[1,1,3,2] 0
x[1,1,4,0] 1
x[1,1,4,1] 1
x[1,1,4,2] 0
x[1,1,5,0] 0
x[1,1,5,1] 0
x[1,1,5,2] 0
x[1,1,6,0] 0
x[1,1,6,1] 0
x[1,1,6,2] 0
x[1,2,0,0] 0
x[1,2,0,1] 0
x[1,2,0,2] 0
x[1,2,1,0] 1
x[1,2,1,1] 0
x[1,2,1,2] 0
x[1,2,2,0] 1
x[1,2,2,1] 1
x[1,2,2,2] 0
x[1,2,3,0] 0
x[1,2,3,1] 0
x[1,2,3,2] 0
x[1,2,4,0] 1
x[1,2,4,1] 0
x[1,2,4,2] 1
x[1,2,5,0] 1
x[1,2,5,1] 0
x[1,2,5,2] 0
x[1,2,6,0] 0
x[1,2,6,1] 1
x[1,2,6,2] 0
x[2,0,0,0] 0
x[2,0,0,1] 0
x[2,0,0,2] 0
x[2,0,1,0] 0
x[2,0,1,1] 0
x[2,0,1,2] 0
x[2,0,2,0] 0
x[2,0,2,1] 1
x[2,0,2,2] 0
x[2,0,3,0] 0
x[2,0,3,1] 0
x[2,0,3,2] 0
x[2,0,4,0] 1
x[2,0,4,1] 0
x[2,0,4,2] 1
x[2,0,5,0] 1
x[2,0,5,1] 0
x[2,0,5,2] 0
x[2,0,6,0] 0
x[2,0,6,1] 1
x[2,0,6,2] 0
x[2,1,0,0] 0
x[2,1,0,1] 0
x[2,1,0,2] 0
x[2,1,1,0] 0
x[2,1,1,1] 0
x[2,1,1,2] 0
x[2,1,2,0] 0
x[2,1,2,1] 0
x[2,1,2,2] 0
x[2,1,3,0] 1
x[2,1,3,1] 1
x[2,1,3,2] 0
x[2,1,4,0] 0
x[2,1,4,1] 1
x[2,1,4,2] 0
x[2,1,5,0] 1
x[2,1,5,1] 0
x[2,1,5,2] 1
x[2,1,6,0] 0
x[2,1,6,1] 1
x[2,1,6,2] 1
x[2,2,0,0] 0
x[2,2,0,1] 0
x[2,2,0,2] 0
x[2,2,1,0] 0
x[2,2,1,1] 0
x[2,2,1,2] 0
x[2,2,2,0] 1
x[2,2,2,1] 0
x[2,2,2,2] 0
x[2,2,3,0] 0
x[2,2,3,1] 1
x[2,2,3,2] 0
x[2,2,4,0] 0
x[2,2,4,1] 0
x[2,2,4,2] 1
x[2,2,5,0] 1
x[2,2,5,1] 1
x[2,2,5,2] 0
x[2,2,6,0] 1
x[2,2,6,1] 0
x[2,2,6,2] 1
x[3,0,0,0] 0
x[3,0,0,1] 0
x[3,0,0,2] 0
x[3,0,1,0] 0
x[3,0,1,1] 0
x[3,0,1,2] 0
x[3,0,2,0] 0
x[3,0,2,1] 0
x[3,0,2,2] 0
x[3,0,3,0] 0
x[3,0,3,1] 0
x[3,0,3,2] 1
x[3,0,4,0] 0
x[3,0,4,1] 1
x[3,0,4,2] 1
x[3,0,5,0] 0
x[3,0,5,1] 1
x[3,0,5,2] 1
x[3,0,6,0] 0
x[3,0,6,1] 0
x[3,0,6,2] 0
x[3,1,0,0] 0
x[3,1,0,1] 0
x[3,1,0,2] 0
x[3,1,1,0] 0
x[3,1,1,1] 0
x[3,1,1,2] 0
x[3,1,2,0] 0
x[3,1,2,1] 0
x[3,1,2,2] 0
x[3,1,3,0] 0
x[3,1,3,1] 0
x[3,1,3,2] 1
x[3,1,4,0] 1
x[3,1,4,1] 0
x[3,1,4,2] 0
x[3,1,5,0] 1
x[3,1,5,1] 1
x[3,1,5,2] 1
x[3,1,6,0] 0
x[3,1,6,1] 1
x[3,1,6,2] 1
x[3,2,0,0] 0
x[3,2,0,1] 0
x[3,2,0,2] 0
x[3,2,1,0] 0
x[3,2,1,1] 0
x[3,2,1,2] 0
x[3,2,2,0] 0
x[3,2,2,1] 0
x[3,2,2,2] 0
x[3,2,3,0] 0
x[3,2,3,1] 0
x[3,2,3,2] 0
x[3,2,4,0] 1
x[3,2,4,1] 1
x[3,2,4,2] 1
x[3,2,5,0] 1
x[3,2,5,1] 0
x[3,2,5,2] 1
x[3,2,6,0] 0
x[3,2,6,1] 1
x[3,2,6,2] 0
x[4,0,0,0] 0
x[4,0,0,1] 0
x[4,0,0,2] 0
x[4,0,1,0] 0
x[4,0,1,1] 0
x[4,0,1,2] 0
x[4,0,2,0] 0
x[4,0,2,1] 0
x[4,0,2,2] 0
x[4,0,3,0] 0
x[4,0,3,1] 0
x[4,0,3,2] 0
x[4,0,4,0] 0
x[4,0,4,1] 1
x[4,0,4,2] 0
x[4,0,5,0] 1
x[4,0,5,1] 1
x[4,0,5,2] 0
x[4,0,6,0] 0
x[4,0,6,1] 1
x[4,0,6,2] 1
x[4,1,0,0] 0
x[4,1,0,1] 0
x[4,1,0,2] 0
x[4,1,1,0] 0
x[4,1,1,1] 0
x[4,1,1,2] 0
x[4,1,2,0] 0
x[4,1,2,1] 0
x[4,1,2,2] 0
x[4,1,3,0] 0
x[4,1,3,1] 0
x[4,1,3,2] 0
x[4,1,4,0] 0
x[4,1,4,1] 0
x[4,1,4,2] 0
x[4,1,5,0] 0
x[4,1,5,1] 0
x[4,1,5,2] 0
x[4,1,6,0] 1
x[4,1,6,1] 1
x[4,1,6,2] 0
x[4,2,0,0] 0
x[4,2,0,1] 0
x[4,2,0,2] 0
x[4,2,1,0] 0
x[4,2,1,1] 0
x[4,2,1,2] 0
x[4,2,2,0] 0
x[4,2,2,1] 0
x[4,2,2,2] 0
x[4,2,3,0] 0
x[4,2,3,1] 0
x[4,2,3,2] 0
x[4,2,4,0] 0
x[4,2,4,1] 1
x[4,2,4,2] 0
x[4,2,5,0] 0
x[4,2,5,1] 0
x[4,2,5,2] 1
x[4,2,6,0] 0
x[4,2,6,1] 1
x[4,2,6,2] 0
x[5,0,0,0] 0
x[5,0,0,1] 0
x[5,0,0,2] 0
x[5,0,1,0] 0
x[5,0,1,1] 0
x[5,0,1,2] 0
x[5,0,2,0] 0
x[5,0,2,1] 0
x[5,0,2,2] 0
x[5,0,3,0] 0
x[5,0,3,1] 0
x[5,0,3,2] 0
x[5,0,4,0] 0
x[5,0,4,1] 0
x[5,0,4,2] 0
x[5,0,5,0] 0
x[5,0,5,1] 0
x[5,0,5,2] 0
x[5,0,6,0] 1
x[5,0,6,1] 0
x[5,0,6,2] 1
x[5,1,0,0] 0
x[5,1,0,1] 0
x[5,1,0,2] 0
x[5,1,1,0] 0
x[5,1,1,1] 0
x[5,1,1,2] 0
x[5,1,2,0] 0
x[5,1,2,1] 0
x[5,1,2,2] 0
x[5,1,3,0] 0
x[5,1,3,1] 0
x[5,1,3,2] 0
x[5,1,4,0] 0
x[5,1,4,1] 0
x[5,1,4,2] 0
x[5,1,5,0] 0
x[5,1,5,1] 0
x[5,1,5,2] 1
x[5,1,6,0] 0
x[5,1,6,1] 0
x[5,1,6,2] 0
x[5,2,0,0] 0
x[5,2,0,1] 0
x[5,2,0,2] 0
x[5,2,1,0] 0
x[5,2,1,1] 0
x[5,2,1,2] 0
x[5,2,2,0] 0
x[5,2,2,1] 0
x[5,2,2,2] 0
x[5,2,3,0] 0
x[5,2,3,1] 0
x[5,2,3,2] 0
x[5,2,4,0] 0
x[5,2,4,1] 0
x[5,2,4,2] 0
x[5,2,5,0] 1
x[5,2,5,1] 0
x[5,2,5,2] 0
x[5,2,6,0] 0
x[5,2,6,1] 0
x[5,2,6,2] 0
x[6,0,0,0] 0
x[6,0,0,1] 0
x[6,0,0,2] 0
x[6,0,1,0] 0
x[6,0,1,1] 0
x[6,0,1,2] 0
x[6,0,2,0] 0
x[6,0,2,1] 0
x[6,0,2,2] 0
x[6,0,3,0] 0
x[6,0,3,1] 0
x[6,0,3,2] 0
x[6,0,4,0] 0
x[6,0,4,1] 0
x[6,0,4,2] 0
x[6,0,5,0] 0
x[6,0,5,1] 0
x[6,0,5,2] 0
x[6,0,6,0] 0
x[6,0,6,1] 0
x[6,0,6,2] 0
x[6,1,0,0] 0
x[6,1,0,1] 0
x[6,1,0,2] 0
x[6,1,1,0] 0
x[6,1,1,1] 0
x[6,1,1,2] 0
x[6,1,2,0] 0
x[6,1,2,1] 0
x[6,1,2,2] 0
x[6,1,3,0] 0
x[6,1,3,1] 0
x[6,1,3,2] 0
x[6,1,4,0] 0
x[6,1,4,1] 0
x[6,1,4,2] 0
x[6,1,5,0] 0
x[6,1,5,1] 0
x[6,1,5,2] 0
x[6,1,6,0] 1
x[6,1,6,1] 0
x[6,1,6,2] 0
x[6,2,0,0] 0
x[6,2,0,1] 0
x[6,2,0,2] 0
x[6,2,1,0] 0
x[6,2,1,1] 0
x[6,2,1,2] 0
x[6,2,2,0] 0
x[6,2,2,1] 0
x[6,2,2,2] 0
x[6,2,3,0] 0
x[6,2,3,1] 0
x[6,2,3,2] 0
x[6,2,4,0] 0
x[6,2,4,1] 0
x[6,2,4,2] 0
x[6,2,5,0] 0
x[6,2,5,1] 0
x[6,2,5,2] 0
x[6,2,6,0] 1
x[6,2,6,1] 1
x[6,2,6,2] 0
s[0,0,2] 0
s[0,0,3] 1.0999999999999972e+01
s[0,0,6] 0
s[0,1,1] 0
s[0,1,2] 6.9999999999999929e+00
s[0,1,4] 0
s[0,2,1] 0
s[0,2,2] 3
s[0,2,4] 0
s[1,0,0] 0
s[1,0,1] 1.1999999999999964e+01
s[1,0,4] 0
s[1,1,2] 0
s[1,1,4] 6.9999999999999680e+00
s[1,1,6] 0
s[1,2,1] 0
s[1,2,4] 1.9999999999999716e+00
s[1,2,5] 0
s[2,0,0] 0
s[2,0,2] 1.3999999999999993e+01
s[2,0,5] 0
s[2,1,2] 0
s[2,1,5] 5.9999999999999005e+00
s[2,1,6] 0
s[2,2,0] 9.9999999999997868e+00
s[2,2,3] 0
s[2,2,4] 0
s[3,0,2] 0
s[3,0,3] 2.5999999999999673e+01
s[3,0,6] 0
s[3,1,1] 23
s[3,1,4] 0
s[3,1,5] 0
s[3,2,3] 0
s[3,2,4] 1.4999999999999968e+01
s[3,2,5] 0
s[4,0,2] 0
s[4,0,4] 0
s[4,0,6] 1.9999999999999410e+01
s[4,1,0] 1.7999999999999481e+01
s[4,1,4] 0
s[4,1,6] 0
s[4,2,0] 0
s[4,2,3] 0
s[4,2,5] 1.3999999999999524e+01
s[5,0,0] 0
s[5,0,5] 0
s[5,0,6] 8.0000000000012168e+00
s[5,1,2] 0
s[5,1,3] 2.9999999999999147e+00
s[5,1,4] 0
s[5,2,1] 0
s[5,2,2] 0
s[5,2,5] 0
s[6,0,0] 3.9999999999999574e+00
s[6,0,1] 0
s[6,0,5] 0
s[6,1,1] 0
s[6,1,4] 0
s[6,1,5] 1.9999999999999574e+00
s[6,2,1] 0
s[6,2,4] 0
s[6,2,6] 0
Z_FO 115
